<instance format="XCSP3" type="COP">
  <variables>
    <array id="x" size="[60]"> 0 1 </array>
  </variables>
  <constraints>
    <sum>
      <list> x[] </list>
      <coeffs> 21 61 26 48 4 6 25 30 52 24 25 7 60 20 37 25 9 36 9 11 56 10 58 33 6 1 22 29 43 10 7 46 23 44 50 57 59 60 3 31 5 12 39 12 47 25 11 45 14 33 62 27 31 11 22 34 18 23 62 26 </coeffs>
      <condition> (le,250) </condition>
    </sum>
  </constraints>
  <objectives>
    <maximize type="sum">
      <list> x[] </list>
      <coeffs> 74 78 66 73 74 75 47 42 8 38 44 73 80 93 48 19 59 51 95 2 55 5 82 42 68 79 70 13 6 77 33 56 14 67 74 42 67 28 64 67 51 40 39 65 47 13 31 11 48 96 41 18 18 2 20 24 18 69 17 25 </coeffs>
    </maximize>
  </objectives>
</instance>
